k = 16;
b = 8;
AtomicConstraints =  [|
5, 1|
	5, 4|
	6, 1|
	6, 4|
	7, 2|
	7, 3|
	8, 2|
	8, 3|
	9, 10|
	9, 11|
	12, 11|
	15, 10|
	15, 11|
	15, 9|
	15, 12|
	16, 11|
	16, 12|
	13, 11|
	13, 12|
	13, 15|
	13, 16|
	14, 16|];
DisjunctiveConstraints =  [|5, 9, 5, 1|
	6, 12, 6, 4|
	7, 10, 7, 2|
	8, 11, 8, 3|
	9, 10, 9, 2|
	9, 11, 9, 3|
	12, 11, 12, 3|
	15, 11, 15, 3|
	15, 12, 15, 4|
	13, 15, 13, 7|
	13, 16, 13, 8|
	14, 16, 14, 8|];
SoftAtomicConstraints =  [|
4, 2|
2, 3|
1, 4|
5, 6|
6, 7|
7, 8|
10, 11|
9, 12|
13, 14|
15, 16|];
DirectSuccessors =  [1,
2,
3,
4,
5,
6,
7,
8];
